4659.91 0
0 61 55 39 44 43 38 40 49 47 45 92 79 80 137 0
0 18 21 22 28 26 126 73 67 65 71 0
0 96 94 97 0
0 146 2 16 5 17 9 3 10 4 8 7 0
0 106 109 133 128 121 120 123 0
0 52 59 57 90 87 83 78 144 139 138 0
0 107 102 15 11 12 13 1 6 110 111 100 0
0 63 56 74 68 70 72 69 101 150 14 141 140 147 142 84 91 81 0
0 54 136 25 34 36 27 64 60 0
0 33 51 112 105 103 98 145 149 82 0
0 20 35 30 24 37 115 127 125 134 132 0
0 75 88 86 93 95 58 129 130 131 118 116 122 117 0
0 19 31 32 23 29 66 50 48 42 0
0 76 85 77 89 148 143 104 108 99 114 113 124 119 135 0
0 53 41 46 62 0